c NETGEN flow network generator (C version)
c  Problem  1 input parameters
c  ---------------------------
c   Random seed:           102579377
c   Number of nodes:              16
c   Source nodes:                  1
c   Sink nodes:                    1
c   Number of arcs:              100
c   Minimum arc cost:              1
c   Maximum arc cost:             28
c   Total supply:                613
c   Transshipment -
c     Sources:                     0
c     Sinks:                       0
c   Skeleton arcs -
c     With max cost:               0%
c     Capacitated:               100%
c   Minimum arc capacity:         46
c   Maximum arc capacity:        131
c
c  *** Minimum cost flow ***
c
p min 16 100
n 1 307
n 16 -307
a 1 10 0 307 8
a 1 14 0 97 17
a 1 8 0 106 11
a 1 2 0 111 12
a 1 9 0 69 10
a 2 9 0 307 21
a 2 10 0 118 15
a 2 4 0 116 13
a 2 6 0 81 23
a 2 12 0 117 28
a 2 14 0 46 19
a 2 5 0 53 12
a 2 15 0 128 20
a 2 13 0 90 22
a 3 7 0 307 23
a 3 15 0 94 28
a 3 16 0 126 5
a 4 16 0 307 14
a 4 15 0 84 5
a 4 9 0 62 1
a 4 7 0 94 27
a 4 2 0 50 8
a 4 11 0 50 28
a 4 3 0 77 14
a 5 12 0 307 14
a 5 7 0 110 3
a 5 2 0 85 9
a 6 4 0 307 26
a 6 5 0 96 16
a 6 3 0 60 23
a 6 7 0 90 27
a 7 2 0 307 28
a 7 9 0 77 18
a 7 15 0 57 7
a 7 14 0 63 28
a 7 5 0 68 25
a 7 6 0 77 8
a 8 13 0 307 27
a 8 1 0 307 10
a 8 7 0 52 26
a 8 12 0 96 23
a 8 15 0 68 1
a 8 6 0 100 8
a 8 9 0 122 3
a 8 11 0 106 21
a 8 4 0 112 21
a 9 11 0 307 9
a 9 5 0 113 1
a 9 2 0 114 12
a 9 14 0 129 27
a 9 12 0 54 9
a 9 13 0 67 21
a 9 7 0 81 22
a 10 5 0 307 18
a 10 13 0 124 8
a 10 16 0 118 4
a 10 8 0 80 8
a 10 4 0 121 13
a 10 9 0 104 2
a 10 12 0 67 15
a 10 15 0 89 17
a 10 6 0 52 25
a 10 7 0 72 24
a 11 14 0 307 5
a 11 7 0 124 10
a 11 10 0 125 8
a 11 9 0 48 10
a 11 2 0 52 3
a 11 15 0 56 6
a 12 3 0 307 9
a 12 7 0 95 5
a 12 15 0 78 4
a 12 13 0 79 9
a 12 8 0 90 11
a 12 5 0 86 11
a 12 11 0 97 14
a 13 6 0 307 9
a 13 14 0 59 21
a 13 10 0 88 23
a 13 3 0 128 16
a 13 7 0 122 16
a 13 4 0 97 20
a 13 11 0 66 11
a 13 9 0 63 3
a 13 5 0 51 19
a 13 8 0 89 14
a 13 12 0 68 23
a 13 2 0 101 22
a 13 16 0 61 24
a 14 15 0 307 14
a 14 4 0 114 11
a 15 8 0 307 16
a 15 9 0 111 19
a 15 13 0 127 19
a 15 7 0 128 8
a 15 11 0 112 19
a 15 14 0 69 20
a 15 2 0 94 4
a 15 3 0 110 24
a 15 16 0 111 17
